1 -1 2 0
1 -3 -1 0
1 3 2 0
1 -4 5 0
1 4 -6 0
1 4 -7 0
1 4 -8 0
1 -9 5 0
1 9 -6 0
1 10 -11 0
1 10 12 0
1 10 1 0
1 -2 -13 0
1 -2 -14 0
1 -2 3 0
1 6 -15 0
1 6 16 0
1 6 17 0
1 6 -4 0
1 -6 8 0
1 -8 -18 0
1 -8 3 0
1 8 6 0
1 19 20 0
1 19 -11 0
1 19 -2 0
1 11 -7 0
1 -12 -20 0
1 12 -14 0
1 12 -10 0
1 -14 5 0
1 -14 21 0
1 14 -12 0
1 14 -22 0
1 -21 -23 0
1 -21 24 0
1 -21 -25 0
1 20 23 0
1 -7 -5 0
1 -7 9 0
1 -7 26 0
1 7 -12 0
1 -7 -4 0
1 -5 -27 0
1 -5 13 0
1 -5 -14 0
1 -5 -11 0
1 -5 4 0
1 -5 28 0
1 25 -29 0
1 30 21 0
1 23 29 0
1 -23 -31 0
1 31 23 0
1 32 -24 0
1 -32 -14 0
1 32 -25 0
1 22 23 0
1 -22 -24 0
1 22 33 0
1 -22 26 0
1 -22 -25 0
1 29 -23 0
1 29 33 0
1 -29 28 0
1 17 34 0
1 18 35 0
1 18 11 0
1 -18 34 0
1 -16 -35 0
1 16 36 0
1 -16 6 0
1 -16 37 0
1 38 15 0
1 -38 -16 0
1 -39 -40 0
1 -39 -15 0
1 39 -16 0
1 -39 -17 0
1 35 -18 0
1 -35 -17 0
1 34 -40 0
1 15 5 0
1 15 -13 0
1 -15 -7 0
1 15 25 0
1 15 -41 0
1 13 7 0
1 -13 -37 0
1 -13 8 0
1 42 -5 0
1 42 30 0
1 42 -37 0
1 -27 -43 0
1 27 41 0
1 -36 13 0
1 -36 26 0
1 37 13 0
1 -37 -40 0
1 -37 16 0
1 41 -27 0
1 41 -42 0
1 -41 15 0
1 26 5 0
1 26 -44 0
1 26 7 0
1 28 26 0
1 -45 37 0
1 46 10 0
1 46 42 0
1 46 -45 0
1 -43 -28 0
1 44 42 0
1 -44 28 0
1 -47 26 0
1 -47 -42 0
1 -47 -28 0
